NAME: belgium-tourism-14
TYPE: TSP
COMMENT: Belgium tourist attractions
DIMENSION: 14
EDGE_WEIGHT_TYPE: GEO
DISPLAY_DATA_TYPE: COORD_DISPLAY
NODE_COORD_SECTION
 1 51.21944 4.40246 314 85 Antwerp
 2 50.76092 4.11017 207 350 Bruges
 3 50.98121 5.48662 709 223 C-Mine
 4 50.26049 4.91274 500 636 Dinant
 5 51.05434 3.71742 64 181 Ghent
 6 50.84673 4.35241 296 300 Grand-Place de Bruxelles
 7 50.93069 5.33248 652 251 Hasselt
 8 50.87984 4.70051 422 280 Leuven
 9 51.02587 4.47753 341 197 Mechelen
 10 50.45424 3.95665 152 526 Mons
 11 50.64812 5.57735 742 415 Montagne de Bueren
 12 50.46738 4.87198 485 518 Namur
 13 50.47987 5.71185 791 511 Remouchamps
 14 50.71469 4.39909 313 377 Waterloo
EOF
